s td 237 7 306
b 1 5
b 2 104 233
b 3 17 64
b 4 93 126
b 5 108 132
b 6 4 43 233
b 7 43 74
b 8 39 241
b 9 94 284
b 10 35 181
b 11 33 241 242
b 12 70 211
b 13 8 284 285
b 14 63 147
b 15 95 181 182
b 16 83 182 183
b 17 53 183 184
b 18 129 285 286
b 19 101 286 287
b 20 32 234
b 21 120 234 235
b 22 20 287 288
b 23 59 235 236
b 24 72 288 289
b 25 77 289 290
b 26 1 236 237
b 27 105 290 291
b 28 18 237 238
b 29 31 295
b 30 121 295 296
b 31 41 296 297
b 32 135 297 298
b 33 85 298 299
b 34 23 112 210
b 35 57 209 210
b 36 67 208 209
b 37 103 207 208
b 38 62 206 207
b 39 99 205 206
b 40 114 204 205
b 41 90 203 204
b 42 9 202 203
b 43 54 201 202
b 44 137 200 201
b 45 60 199 200
b 46 71 198 199
b 47 119 197 198
b 48 107 196 197
b 49 24 195 196
b 50 75 194 195
b 51 122 193 194
b 52 66 192 193
b 53 28 191 192
b 54 84 190 191
b 55 16 189 190
b 56 47 87 306
b 57 136 305 306
b 58 12 304 305
b 59 127 303 304
b 60 118 186 187
b 61 52 185 186
b 62 100 184 185
b 63 27 187 188
b 64 79 264 265
b 65 131 263 264
b 66 97 265 266
b 67 81 266 267
b 68 10 267 268
b 69 117 268 269
b 70 61 269 270
b 71 140 270 271
b 72 143 246 247
b 73 86 247 248
b 74 80 248 249
b 75 44 245 246
b 76 34 244 245
b 77 123 243 244
b 78 91 242 243
b 79 91 238 239
b 80 14 239 240
b 81 37 68 240
b 82 19 110 180
b 83 6 179 180
b 84 73 178 179
b 85 42 177 178
b 86 264 265 266
b 87 199 200 201
b 88 245 246 247
b 89 144 150 151
b 90 46 151 152
b 91 199 201 202
b 92 124 258 259
b 93 102 259 260
b 94 113 260 261
b 95 78 261 262
b 96 130 211 212
b 97 130 147 148
b 98 244 245 247
b 99 130 148 212
b 100 29 281 282
b 101 146 280 281
b 102 128 279 280
b 103 69 282 283
b 104 109 133 283
b 105 108 278 279
b 106 92 277 278
b 107 111 162 163
b 108 145 176 177
b 109 260 261 262
b 110 195 196 197
b 111 38 272 273
b 112 134 273 274
b 113 106 274 275
b 114 11 275 276
b 115 7 251 252
b 116 125 250 251
b 117 91 239 243
b 118 55 89 294
b 119 138 293 294
b 120 190 191 192
b 121 190 192 193
b 122 243 244 247
b 123 190 193 194
b 124 186 187 188
b 125 259 260 262
b 126 266 267 268
b 127 190 194 195
b 128 274 275 276
b 129 100 185 186
b 130 89 293 294
b 131 40 166 167
b 132 197 198 199
b 133 195 197 199
b 134 190 195 199
b 135 266 268 269
b 136 150 151 152
b 137 189 190 199
b 138 258 259 262
b 139 108 277 278
b 140 273 274 276
b 141 142 300 301
b 142 15 299 300
b 143 26 301 302
b 144 2 302 303
b 145 15 300 301
b 146 199 202 203
b 147 239 243 247
b 148 100 186 188
b 149 239 247 248
b 150 264 266 269
b 151 37 239 240
b 152 239 248 249
b 153 189 199 203
b 154 263 264 269
b 155 263 269 270
b 156 272 273 276
b 157 263 270 271
b 158 250 251 252
b 159 37 239 249
b 160 2 301 302
b 161 2 15 301
b 162 96 153 154
b 163 65 253 254
b 164 90 189 203
b 165 21 291 292
b 166 3 173 174
b 167 49 145 175 176
b 168 49 145 175 232
b 169 21 37 292 293
b 170 89 188 189 293
b 171 37 100 249 250
b 172 100 188 189 293
b 173 90 271 272 276
b 174 90 263 271 276
b 175 37 100 250 252
b 176 90 189 263 276
b 177 88 148 212 213
b 178 88 148 149 213
b 179 45 149 150 213
b 180 45 150 213 214
b 181 150 152 214
b 182 48 152 153 214
b 183 48 153 214 215
b 184 48 258 262 263
b 185 48 153 154 215
b 186 37 108 276 277
b 187 2 172 173 174
b 188 2 15 172 174
b 189 141 252 253 254
b 190 58 162 163 164
b 191 30 166 167 168
b 192 37 100 189 252 293
b 193 21 37 189 252 293
b 194 37 108 189 263 276
b 195 21 141 252 254 255
b 196 36 49 174 175 232
b 197 36 49 174 231 232
b 198 21 37 108 189 252 263
b 199 15 49 172 174 231
b 200 48 154 215 258 263
b 201 139 154 155 215 216
b 202 115 155 156 216 217
b 203 154 155 215 216 258 263
b 204 155 156 216 217 258 263
b 205 21 108 141 252 255 263
b 206 108 156 217 218 258 263
b 207 108 156 157 218 258 263
b 208 76 157 158 218 219
b 209 49 51 256 257 258
b 210 15 49 51 172 230 231
b 211 15 49 51 171 172 230
b 212 15 49 51 255 256 258
b 213 15 49 51 171 230 255 258
b 214 82 170 171 229 230
b 215 170 171 229 230 255 258
b 216 22 169 170 228 229
b 217 98 168 169 227 228
b 218 30 166 168 226 227
b 219 168 169 170 227 228 229
b 220 166 168 170 226 227 229
b 221 166 170 226 229 255 258
b 222 13 165 166 225 226
b 223 25 164 165 224 225
b 224 58 162 164 223 224
b 225 116 161 162 222 223
b 226 164 165 166 224 225 226
b 227 162 164 166 223 224 226
b 228 161 162 166 222 223 226
b 229 161 166 222 226 255 258
b 230 50 160 161 221 222
b 231 160 161 221 222 255 258
b 232 56 159 160 220 221
b 233 159 160 220 221 255 258
b 234 141 159 219 220 255 258
b 235 141 158 159 219 255 258
b 236 108 141 158 219 255 258 263
b 237 108 157 158 218 219 258 263
207 237
236 237
208 237
235 236
205 236
5 236
195 205
198 205
193 198
194 198
186 194
176 194
174 176
164 176
41 164
153 164
146 153
137 153
55 137
134 137
133 134
127 134
50 127
123 127
51 123
121 123
52 121
120 121
53 120
54 120
132 133
110 133
49 110
48 110
47 132
46 132
42 146
91 146
43 91
87 91
44 87
45 87
40 41
39 40
38 39
37 38
36 37
35 36
34 35
173 174
157 174
71 157
155 157
70 155
154 155
65 154
150 154
135 150
86 150
66 86
64 86
69 135
126 135
67 126
68 126
156 173
140 156
111 156
128 140
112 140
113 128
114 128
1 128
139 186
105 139
106 139
102 105
101 102
100 101
103 100
104 103
192 193
169 193
165 169
27 165
25 27
24 25
22 24
19 22
18 19
13 18
9 13
172 192
175 192
171 175
158 175
115 158
116 158
4 115
159 171
151 159
152 159
74 152
149 152
73 149
147 149
122 147
117 147
79 117
78 117
11 78
8 11
28 79
26 28
23 26
21 23
20 21
2 21
6 2
7 6
77 122
98 122
76 98
88 98
75 88
72 88
80 151
81 151
170 172
148 172
129 148
124 148
63 124
60 124
61 129
62 129
17 62
16 17
15 16
10 15
130 170
119 130
118 130
189 195
163 189
234 235
233 234
232 233
231 233
229 231
230 231
228 229
221 229
215 221
220 221
218 220
219 220
216 219
217 219
191 218
131 191
213 215
214 215
211 213
212 213
209 212
210 211
199 210
197 199
188 199
187 188
161 188
160 161
145 161
141 145
142 145
33 142
32 33
31 32
30 31
29 30
144 160
143 160
59 144
58 59
57 58
56 57
166 187
196 197
168 196
167 168
108 167
85 108
84 85
83 84
82 83
227 228
225 228
224 227
226 227
222 226
223 226
190 224
107 190
3 232
206 207
204 206
202 204
203 204
200 203
201 203
184 200
185 200
183 185
162 185
182 183
181 182
180 181
136 181
89 136
90 136
179 180
178 179
177 178
99 177
96 99
97 99
14 97
12 96
138 184
125 138
92 138
109 125
93 125
94 109
95 109
